60
1 0 52
2 1 103
3 0 53
3 1 156
3 2 133
4 0 105
4 2 132
5 1 35
5 2 138
5 3 148
5 4 24
6 0 100
6 1 41
6 2 19
6 3 84
6 4 126
6 5 56
7 0 129
7 2 62
7 3 51
7 4 75
7 5 87
7 6 49
8 2 6
8 5 155
8 6 96
9 0 90
9 1 143
9 2 19
9 3 53
9 4 52
9 6 20
9 8 115
10 0 5
10 1 24
10 2 40
10 3 136
10 4 123
10 5 3
10 6 68
10 7 133
10 8 12
10 9 70
11 0 157
11 1 97
11 2 90
11 3 15
11 4 1
11 6 110
11 7 79
11 9 100
11 10 69
12 0 106
12 1 37
12 2 19
12 4 102
12 5 103
12 6 18
12 7 103
12 9 154
12 10 57
12 11 138
13 0 100
13 1 67
13 2 143
13 3 136
13 4 70
13 5 114
13 6 128
13 7 55
13 8 130
13 10 95
13 11 134
13 12 72
14 0 27
14 1 98
14 3 67
14 4 52
14 5 133
14 8 75
14 9 71
14 10 78
14 11 138
14 12 44
15 0 111
15 1 34
15 2 133
15 3 15
15 4 130
15 6 89
15 7 68
15 8 80
15 9 152
15 10 17
15 11 67
15 12 43
15 13 13
16 0 75
16 1 108
16 2 4
16 3 123
16 4 12
16 5 97
16 7 115
16 8 20
16 9 84
16 10 109
16 11 135
16 12 90
16 13 147
17 0 68
17 1 54
17 5 97
17 6 102
17 7 89
17 8 140
17 9 119
17 12 122
17 13 19
17 14 119
17 15 146
17 16 61
18 0 126
18 1 120
18 4 69
18 5 29
18 7 133
18 8 72
18 9 122
18 10 113
18 11 141
18 13 142
18 14 4
18 15 130
18 16 101
18 17 109
19 1 152
19 2 148
19 3 39
19 4 43
19 6 6
19 7 60
19 8 42
19 9 23
19 10 54
19 12 106
19 14 60
19 15 156
19 17 93
19 18 147
20 0 121
20 1 63
20 2 30
20 3 79
20 4 74
20 5 112
20 6 39
20 8 10
20 9 122
20 10 8
20 12 153
20 13 39
20 14 111
20 15 24
20 17 71
20 18 142
20 19 153
21 0 68
21 1 58
21 2 59
21 3 10
21 4 101
21 5 100
21 6 119
21 7 121
21 8 87
21 9 104
21 10 127
21 12 36
21 13 65
21 15 160
21 17 128
21 20 85
22 0 3
22 1 56
22 2 125
22 3 39
22 4 18
22 5 100
22 6 140
22 7 54
22 8 138
22 9 19
22 10 78
22 11 69
22 14 14
22 15 43
22 16 35
22 17 56
22 18 154
22 19 112
22 20 78
22 21 52
23 0 78
23 1 42
23 2 56
23 4 129
23 5 101
23 6 139
23 7 115
23 8 147
23 9 80
23 11 155
23 12 100
23 13 112
23 14 154
23 15 79
23 16 57
23 17 36
23 18 157
23 19 13
23 20 96
23 22 50
24 0 131
24 1 101
24 2 103
24 3 112
24 4 29
24 5 56
24 6 23
24 7 23
24 8 77
24 9 28
24 11 93
24 12 93
24 13 112
24 14 107
24 15 97
24 16 118
24 17 41
24 18 58
24 19 134
24 20 152
24 21 60
24 22 1
25 0 81
25 1 142
25 2 55
25 3 66
25 5 11
25 6 68
25 7 140
25 8 146
25 9 155
25 10 146
25 11 131
25 12 106
25 13 99
25 15 5
25 16 137
25 17 143
25 19 17
25 20 55
25 21 134
25 22 119
25 24 120
26 0 109
26 2 42
26 3 148
26 4 98
26 5 135
26 6 97
26 7 36
26 10 57
26 11 118
26 12 32
26 13 21
26 14 26
26 15 46
26 16 3
26 17 52
26 18 56
26 19 18
26 20 5
26 21 53
26 22 59
26 24 87
27 0 29
27 2 55
27 3 44
27 5 55
27 6 119
27 7 15
27 8 157
27 9 22
27 10 140
27 11 106
27 12 101
27 13 15
27 14 1
27 15 47
27 16 10
27 17 5
27 18 77
27 19 8
27 20 117
27 21 11
27 22 86
27 23 134
27 24 53
27 25 154
28 1 22
28 2 36
28 3 55
28 5 67
28 7 136
28 10 52
28 12 72
28 14 56
28 15 89
28 16 52
28 18 78
28 19 112
28 20 39
28 21 34
28 22 130
28 24 7
28 25 154
28 27 21
29 0 48
29 4 75
29 7 22
29 8 94
29 11 128
29 13 129
29 14 116
29 15 53
29 16 150
29 17 86
29 18 21
29 20 158
29 21 68
29 23 19
29 25 116
29 26 68
29 27 27
29 28 64
30 0 48
30 1 29
30 2 131
30 3 93
30 6 18
30 7 121
30 8 6
30 9 62
30 10 31
30 11 157
30 12 36
30 13 146
30 14 22
30 16 46
30 17 1
30 18 150
30 19 56
30 20 141
30 22 150
30 23 39
30 25 59
30 26 120
30 27 156
30 29 35
31 0 106
31 1 75
31 3 90
31 5 133
31 8 20
31 9 129
31 10 88
31 11 145
31 12 156
31 13 102
31 14 146
31 15 99
31 16 111
31 17 29
31 18 97
31 19 42
31 20 137
31 21 93
31 23 135
31 24 75
31 25 47
31 26 23
31 27 70
31 28 135
31 29 28
31 30 15
32 2 102
32 3 3
32 4 65
32 5 153
32 8 59
32 9 134
32 10 100
32 11 156
32 12 78
32 13 78
32 14 13
32 15 125
32 16 133
32 17 143
32 18 101
32 19 54
32 22 76
32 23 124
32 24 104
32 26 149
32 27 102
32 28 96
32 29 114
32 30 103
32 31 74
33 0 13
33 1 153
33 2 58
33 3 3
33 5 88
33 6 77
33 8 134
33 9 64
33 12 84
33 14 117
33 15 6
33 16 73
33 17 3
33 19 70
33 21 19
33 22 31
33 23 77
33 25 94
33 26 60
33 27 91
33 28 8
33 30 142
33 31 44
33 32 80
34 0 68
34 3 31
34 4 1
34 5 33
34 7 114
34 8 36
34 9 61
34 11 33
34 12 126
34 13 120
34 15 28
34 16 43
34 17 158
34 18 129
34 21 43
34 22 93
34 25 47
34 28 129
34 29 70
34 32 100
34 33 115
35 0 126
35 3 155
35 4 117
35 5 150
35 6 138
35 7 93
35 8 146
35 9 41
35 10 129
35 12 88
35 13 76
35 14 55
35 15 90
35 16 77
35 17 43
35 18 151
35 19 116
35 20 133
35 21 133
35 22 47
35 23 49
35 24 46
35 25 11
35 26 133
35 27 8
35 28 147
35 29 118
35 30 6
35 31 91
35 32 121
35 34 112
36 0 146
36 1 97
36 2 11
36 3 91
36 5 150
36 6 150
36 7 67
36 8 128
36 9 128
36 12 147
36 13 19
36 14 81
36 15 29
36 16 6
36 17 82
36 18 60
36 19 20
36 21 41
36 24 114
36 25 101
36 26 48
36 27 145
36 28 140
36 29 110
36 32 27
36 33 34
36 35 114
37 0 141
37 4 4
37 5 149
37 6 73
37 7 67
37 8 37
37 9 144
37 10 39
37 12 59
37 13 122
37 14 116
37 15 159
37 16 99
37 17 74
37 18 70
37 19 65
37 21 25
37 22 55
37 23 35
37 24 59
37 25 71
37 27 44
37 28 57
37 29 84
37 30 1
37 31 62
37 33 44
37 35 19
37 36 39
38 0 28
38 1 111
38 2 44
38 3 91
38 4 67
38 5 12
38 6 126
38 7 72
38 8 102
38 9 80
38 11 13
38 12 57
38 13 32
38 14 58
38 15 143
38 16 19
38 17 6
38 18 44
38 19 98
38 20 52
38 22 60
38 23 4
38 24 24
38 25 11
38 26 23
38 27 123
38 28 24
38 29 6
38 30 118
38 33 22
38 34 64
38 35 17
38 36 145
38 37 23
39 1 3
39 3 101
39 4 135
39 5 8
39 6 137
39 7 7
39 8 66
39 9 134
39 14 23
39 16 32
39 17 135
39 19 33
39 20 155
39 21 146
39 22 107
39 23 56
39 24 124
39 26 89
39 27 130
39 28 67
39 29 113
39 30 109
39 33 36
39 34 57
39 35 99
39 36 139
39 38 41
40 0 153
40 1 149
40 3 95
40 4 47
40 5 159
40 6 158
40 7 103
40 8 84
40 9 128
40 11 70
40 14 30
40 15 22
40 17 97
40 19 38
40 20 146
40 21 45
40 23 77
40 24 77
40 26 56
40 27 9
40 28 154
40 30 19
40 31 99
40 32 8
40 33 115
40 34 133
40 35 107
40 36 11
40 37 10
40 38 51
40 39 125
41 0 46
41 1 102
41 2 89
41 3 36
41 4 116
41 5 124
41 6 121
41 8 143
41 10 110
41 11 138
41 12 47
41 13 143
41 14 142
41 15 6
41 16 84
41 17 34
41 18 38
41 19 143
41 20 64
41 21 71
41 22 82
41 24 136
41 25 100
41 26 75
41 27 78
41 29 160
41 30 20
41 31 141
41 32 96
41 33 39
41 34 35
41 35 156
41 37 130
41 38 147
41 39 125
41 40 24
42 0 15
42 1 37
42 3 85
42 4 136
42 6 152
42 9 115
42 10 32
42 13 134
42 14 145
42 16 104
42 17 77
42 18 61
42 19 45
42 20 17
42 23 86
42 24 141
42 25 67
42 26 15
42 27 52
42 28 144
42 29 150
42 30 94
42 31 120
42 33 73
42 34 111
42 35 51
42 36 39
42 37 141
42 38 151
42 39 28
42 40 105
42 41 83
43 0 32
43 1 65
43 2 100
43 3 160
43 4 134
43 5 15
43 6 93
43 7 27
43 8 91
43 9 77
43 10 62
43 13 131
43 15 126
43 16 144
43 17 71
43 18 22
43 19 92
43 20 118
43 22 94
43 24 106
43 25 84
43 27 114
43 28 145
43 29 73
43 30 111
43 31 137
43 32 148
43 33 119
43 34 138
43 35 49
43 37 75
43 38 9
43 40 132
43 42 75
44 0 33
44 2 150
44 3 59
44 4 52
44 5 123
44 6 72
44 7 143
44 8 138
44 10 145
44 11 68
44 12 151
44 13 92
44 14 124
44 15 94
44 17 32
44 18 13
44 19 86
44 20 127
44 21 39
44 22 37
44 23 152
44 25 146
44 26 50
44 28 141
44 29 159
44 30 76
44 31 140
44 32 139
44 34 17
44 35 98
44 36 156
44 37 159
44 38 28
44 40 25
44 41 152
44 42 41
44 43 45
45 0 76
45 1 1
45 2 28
45 3 21
45 4 10
45 5 78
45 6 58
45 7 1
45 8 105
45 9 58
45 10 118
45 11 4
45 12 71
45 13 126
45 14 10
45 15 108
45 16 78
45 18 155
45 19 146
45 21 134
45 22 39
45 23 22
45 24 32
45 25 45
45 26 58
45 27 44
45 28 75
45 29 139
45 31 11
45 32 28
45 34 112
45 36 37
45 37 120
45 38 112
45 39 145
45 40 2
45 41 31
45 42 34
45 43 46
45 44 42
46 1 93
46 3 140
46 5 136
46 6 123
46 8 89
46 9 34
46 10 129
46 12 159
46 13 128
46 14 3
46 17 123
46 18 87
46 19 141
46 20 14
46 21 122
46 23 151
46 24 135
46 25 45
46 27 76
46 29 120
46 30 78
46 31 12
46 33 61
46 34 126
46 35 100
46 36 84
46 37 129
46 38 74
46 39 36
46 41 104
46 42 133
46 43 19
46 44 23
46 45 142
47 0 132
47 2 83
47 4 79
47 5 101
47 6 15
47 7 44
47 8 5
47 9 91
47 10 26
47 11 104
47 12 46
47 13 33
47 14 51
47 15 110
47 16 81
47 17 52
47 19 81
47 20 85
47 21 84
47 23 160
47 24 82
47 25 129
47 26 23
47 27 127
47 29 95
47 30 2
47 31 103
47 32 76
47 33 8
47 34 14
47 35 41
47 36 83
47 37 42
47 38 26
47 39 27
47 40 57
47 41 91
47 42 58
47 43 69
47 44 67
47 45 149
47 46 5
48 0 60
48 1 40
48 5 109
48 7 94
48 9 107
48 10 123
48 11 118
48 12 36
48 13 117
48 15 114
48 16 97
48 17 132
48 20 133
48 21 52
48 23 9
48 25 60
48 26 147
48 27 77
48 28 132
48 29 66
48 30 33
48 31 122
48 32 37
48 34 62
48 35 41
48 36 114
48 37 47
48 38 44
48 39 18
48 40 9
48 41 10
48 42 100
48 43 109
48 44 117
48 45 16
49 0 131
49 1 109
49 3 113
49 4 122
49 5 82
49 7 148
49 8 91
49 9 124
49 10 75
49 12 122
49 13 64
49 14 47
49 15 88
49 16 107
49 17 157
49 18 83
49 19 68
49 20 115
49 21 37
49 23 122
49 24 82
49 25 47
49 26 99
49 27 58
49 28 149
49 29 124
49 30 11
49 31 67
49 33 26
49 34 108
49 35 54
49 36 38
49 37 12
49 38 130
49 40 87
49 41 98
49 42 100
49 43 160
49 44 73
49 45 70
49 46 53
49 47 4
49 48 93
50 0 65
50 1 65
50 2 56
50 3 48
50 4 13
50 5 61
50 6 154
50 8 108
50 9 146
50 10 88
50 11 54
50 12 81
50 13 119
50 14 141
50 15 15
50 16 24
50 17 35
50 18 79
50 22 138
50 23 134
50 24 127
50 26 76
50 27 22
50 28 39
50 29 77
50 30 2
50 31 134
50 32 64
50 34 29
50 35 34
50 37 7
50 40 143
50 42 8
50 43 60
50 44 59
50 45 34
50 46 160
50 47 77
50 48 26
50 49 147
51 0 141
51 1 51
51 2 6
51 3 63
51 4 146
51 5 158
51 6 102
51 7 3
51 8 12
51 9 125
51 10 4
51 11 102
51 12 3
51 13 146
51 14 99
51 15 104
51 16 141
51 17 95
51 18 95
51 19 45
51 22 150
51 23 52
51 24 138
51 25 25
51 26 147
51 27 90
51 28 33
51 29 62
51 30 34
51 31 64
51 32 62
51 33 28
51 34 135
51 35 51
51 36 91
51 37 126
51 38 139
51 39 126
51 40 98
51 42 137
51 43 142
51 44 53
51 45 92
51 46 120
51 47 58
51 48 20
51 49 72
51 50 14
52 0 6
52 1 101
52 2 29
52 3 89
52 4 15
52 6 86
52 7 52
52 9 40
52 10 144
52 14 55
52 16 26
52 17 157
52 18 71
52 19 20
52 20 95
52 21 152
52 22 53
52 23 61
52 26 11
52 27 7
52 28 139
52 29 13
52 30 107
52 31 107
52 32 117
52 33 1
52 34 62
52 35 45
52 36 109
52 38 109
52 39 74
52 40 160
52 41 42
52 42 9
52 43 12
52 44 13
52 47 155
52 48 9
52 49 119
53 0 100
53 1 41
53 2 135
53 3 95
53 4 159
53 6 136
53 7 153
53 8 55
53 9 35
53 10 97
53 12 91
53 14 74
53 15 20
53 16 150
53 17 36
53 18 6
53 19 132
53 20 112
53 22 80
53 23 1
53 24 98
53 25 1
53 26 68
53 27 79
53 29 68
53 30 10
53 31 32
53 32 110
53 33 119
53 34 125
53 35 112
53 36 107
53 37 71
53 38 117
53 39 120
53 40 8
53 41 121
53 42 160
53 43 7
53 44 149
53 45 150
53 46 50
53 47 151
53 48 86
53 49 14
53 50 128
53 51 123
54 2 101
54 3 134
54 4 150
54 5 156
54 6 56
54 7 106
54 8 139
54 9 35
54 10 90
54 12 42
54 14 112
54 16 136
54 17 85
54 18 68
54 20 87
54 21 21
54 22 128
54 23 42
54 24 121
54 26 65
54 27 65
54 28 43
54 29 90
54 33 49
54 34 75
54 35 141
54 36 104
54 37 62
54 39 85
54 40 90
54 41 8
54 42 153
54 43 46
54 45 55
54 47 116
54 48 38
54 50 154
54 51 58
54 52 148
54 53 111
55 0 50
55 1 33
55 2 78
55 3 20
55 4 133
55 5 111
55 7 34
55 8 129
55 9 57
55 10 75
55 11 9
55 12 31
55 13 112
55 14 39
55 15 9
55 16 38
55 17 75
55 18 152
55 19 77
55 20 151
55 21 51
55 24 86
55 26 98
55 27 144
55 28 96
55 30 7
55 31 117
55 33 59
55 34 111
55 35 42
55 36 123
55 37 138
55 38 123
55 39 123
55 40 9
55 41 143
55 42 90
55 43 24
55 45 83
55 48 81
55 49 128
55 50 42
55 51 83
55 52 45
55 53 145
55 54 52
56 1 9
56 2 141
56 3 129
56 4 32
56 5 39
56 6 82
56 8 145
56 9 146
56 10 40
56 11 52
56 12 140
56 14 64
56 15 31
56 16 146
56 18 62
56 19 138
56 20 143
56 21 136
56 23 28
56 24 32
56 26 80
56 27 48
56 28 58
56 29 57
56 31 140
56 32 128
56 33 2
56 34 15
56 35 70
56 37 132
56 38 38
56 40 150
56 43 120
56 44 82
56 45 139
56 48 99
56 51 152
56 52 134
56 53 100
56 55 127
57 0 158
57 1 106
57 2 118
57 3 81
57 5 160
57 6 22
57 8 153
57 9 99
57 10 123
57 11 116
57 12 160
57 13 116
57 14 28
57 15 159
57 16 83
57 17 138
57 18 72
57 19 137
57 20 138
57 22 4
57 23 78
57 24 87
57 25 74
57 26 31
57 27 118
57 29 119
57 31 18
57 32 81
57 33 137
57 34 110
57 35 15
57 37 75
57 39 26
57 40 85
57 41 159
57 43 53
57 45 53
57 46 17
57 47 152
57 48 18
57 49 82
57 50 28
57 51 99
57 52 81
57 53 84
57 54 100
57 55 46
57 56 148
58 1 117
58 2 52
58 3 156
58 4 147
58 5 3
58 6 56
58 7 138
58 8 80
58 9 102
58 11 76
58 12 10
58 14 31
58 16 91
58 17 94
58 18 125
58 19 128
58 20 37
58 21 13
58 22 40
58 23 41
58 24 134
58 25 72
58 27 87
58 29 74
58 30 103
58 31 6
58 32 88
58 33 7
58 35 150
58 36 64
58 37 14
58 40 147
58 41 39
58 42 45
58 43 144
58 44 160
58 46 48
58 47 102
58 48 155
58 49 118
58 50 7
58 52 119
58 53 146
58 54 157
58 55 78
58 57 141
59 0 119
59 2 51
59 3 77
59 4 1
59 5 5
59 7 30
59 8 29
59 9 99
59 11 19
59 12 1
59 13 97
59 14 20
59 15 99
59 16 114
59 18 99
59 21 35
59 22 133
59 24 43
59 25 46
59 27 1
59 30 132
59 31 34
59 32 151
59 33 14
59 34 28
59 36 52
59 38 61
59 39 81
59 40 58
59 43 46
59 44 48
59 45 65
59 46 44
59 47 117
59 48 56
59 49 32
59 50 43
59 51 62
59 53 141
59 54 68
59 55 64
59 56 64
59 57 95
59 58 107
